6 6 143
5 5 1 3 1 3 2 6 3 2 3 2 22 24 44 44 88 88 120 120 140 
5 1 1 2 1 1 2 5 3 5 4 4 28 32 56 56 92 92 124 124 140 
5 4 1 5 2 4 2 4 3 3 3 16 38 38 64 64 106 106 124 124 142 
5 6 1 6 2 2 2 1 3 6 4 21 39 39 65 65 103 103 125 125 143 
10 1 1 0 0 6 1 0 0 2 1 0 0 6 3 0 0 1 3 2 3 0 4 4 14 14 21 21 28 28 32 62 65 65 72 90 92 92 95 103 110 
14 5 1 0 0 4 1 0 0 3 1 5 2 0 0 2 2 0 0 5 3 0 0 3 3 0 0 6 4 0 2 2 11 11 16 16 22 22 24 24 27 53 56 56 59 61 64 64 67 81 88 88 91 116 120 120 125 
